\ SCIP STATISTICS
\   Problem name     : CapacitatedFacilityLocation-20-10
\   Variables        : 210 (210 binary, 0 integer, 0 implicit integer, 0 continuous)
\   Constraints      : 231
Minimize
 Obj: +1302.33965859284 x0 +1401.45483855207 x1 +698.731169167882 x2 +769.390954716766 x3 +891.393227064757 x4
      +1099.6653826392 x5 +794.415698711171 x6 +1249.43420870379 x7 +605.945389946879 x8 +793.902432574931 x9
      +44.6375589821191 x10 +26.0710653783697 x11 +27.5112497408063 x12 +9.6950241345952 x13 +19.8054397513324 x14
      +30.8800254120554 x15 +15.9655719165495 x16 +23.5930501411216 x17 +22.2501782801904 x18 +10.2146465472216 x19
      +49.6841238089069 x20 +94.4229653588426 x21 +95.76885029467 x22 +69.0571211478861 x23 +132.285194139503 x24
      +170.970110530187 x25 +70.533853490869 x26 +90.3802664450628 x27 +40.3024059838289 x28 +119.652446804898 x29
      +65.1028684729857 x30 +62.4682466860531 x31 +12.2188333826911 x32 +36.5004137264023 x33 +31.4419667399842 x34
      +47.8095266545051 x35 +49.2879877474912 x36 +59.8649373410827 x37 +35.1738851580174 x38 +41.2225576643128 x39
      +35.6693642882911 x40 +33.4139770001397 x41 +64.4189636949419 x42 +28.4165334795689 x43 +72.9540153831183 x44
      +93.6513053240183 x45 +18.0168333486098 x46 +30.3538868451785 x47 +25.6760212919794 x48 +57.8782577641486 x49
      +36.9685329854699 x50 +69.3082139441823 x51 +174.697941524301 x52 +105.570754936127 x53 +188.97801218558 x54
      +222.865012745885 x55 +73.0599186705002 x56 +69.7930006885413 x57 +97.6333578833142 x58 +154.84678017598 x59
      +46.2880788786146 x60 +47.1751564160857 x61 +11.9653101053737 x62 +28.7310544383583 x63 +27.8176235468453 x64
      +39.7470617339285 x65 +37.5925682574123 x66 +45.3385229321378 x67 +25.9667022188761 x68 +34.0764220617746 x69
      +93.2738205274305 x70 +74.2787401280894 x71 +48.1803373111226 x72 +11.7064304334076 x73 +62.3421509276083 x74
      +99.0913821631423 x75 +41.9138642562537 x76 +68.0028993841238 x77 +25.3169388019059 x78 +53.0684900549348 x79
      +310.481846975791 x80 +246.452439569175 x81 +78.413928718086 x82 +130.299569066294 x83 +50.8990185757122 x84
      +135.470666865097 x85 +189.388706908827 x86 +233.853478254878 x87 +162.126376985135 x88 +108.025716686372 x89
      +208.738601661679 x90 +101.568732314175 x91 +190.302156707213 x92 +128.400666932223 x93 +126.37637910623 x94
      +108.207307164008 x95 +113.883173772816 x96 +100.419072373812 x97 +169.76508611232 x98 +84.2206839254028 x99
      +100.45212888998 x100 +41.414399059283 x101 +113.748472003389 x102 +73.3603345193564 x103 +86.5539045716494 x104
      +82.249766387917 x105 +57.6451017741681 x106 +42.9434181615537 x107 +92.6689753630226 x108 +61.1208426553992 x109
      +56.4736259486227 x110 +82.3501933027706 x111 +107.099453715238 x112 +58.5181908467086 x113 +136.222471996873 x114
      +177.576496837291 x115 +53.7875340089553 x116 +77.2304674164617 x117 +35.5836846197652 x118 +116.004281536382 x119
      +120.985009680676 x120 +89.8655917657664 x121 +62.5856910309182 x122 +68.4936558594965 x123 +31.6789557417859 x124
      +18.478208434187 x125 +79.8689187022371 x126 +87.0523748269529 x127 +82.809857748656 x128 +44.5685878752681 x129
      +122.914222862301 x130 +146.921181376959 x131 +149.445452670144 x132 +77.2206056150104 x133 +202.939600718356 x134
      +275.827299915568 x135 +88.8404691330841 x136 +136.583368354364 x137 +30.2516300001119 x138 +175.533223308966 x139
      +281.096669133619 x140 +214.796883767545 x141 +96.6958922471489 x142 +128.567942544812 x143 +29.5640707056678 x144
      +84.9265260669852 x145 +172.718544092164 x146 +204.878053323992 x147 +161.721614819627 x148 +87.527534636047 x149
      +32.7664501430743 x150 +25.4700698603563 x151 +10.9034426694252 x152 +7.3525612348085 x153 +13.503607990099 x154
      +25.1170614845239 x155 +16.4068166929053 x156 +23.6097911669819 x157 +12.1158563535252 x158 +13.2269625290656 x159
      +14.2187297546219 x160 +16.4128008089248 x161 +25.8748285969996 x162 +12.2318850430954 x163 +30.9304952838289 x164
      +40.1555218228159 x165 +9.6390704987415 x166 +15.1451976188772 x167 +9.15274417625315 x168 +25.3319498691268 x169
      +22.3162115120936 x170 +27.6245752374427 x171 +61.7413054021135 x172 +32.1088501178574 x173 +69.0231746750374 x174
      +85.4546687068628 x175 +20.6839878956556 x176 +26.0562662779917 x177 +28.5537226308363 x178 +55.6234708124871 x179
      +140.736915212395 x180 +67.90184511255 x181 +148.481316409487 x182 +102.042222686817 x183 +109.369832555991 x184
      +97.5119026295648 x185 +85.6400847899222 x186 +69.3941151191587 x187 +127.446906986261 x188 +79.8330461377037 x189
      +112.407362340498 x190 +40.3882079354227 x191 +118.518912382961 x192 +69.3157771032228 x193 +87.1793772594973 x194
      +87.4780296100692 x195 +52.6830827158706 x196 +39.9418435664487 x197 +94.1821202376567 x198 +55.3239914557914 x199
      +152.71402940035 x200 +58.6218548197206 x201 +185.789920627813 x202 +117.943960009978 x203 +146.485283791533 x204
      +143.185863745501 x205 +89.1725314143521 x206 +62.2692132567991 x207 +146.89984404395 x208 +104.7507439158 x209
Subject to
 c0: +1 x10 +1 x11 +1 x12 +1 x13 +1 x14 +1 x15 +1 x16 +1 x17 +1 x18 +1 x19 >= +1
 c1: +1 x20 +1 x21 +1 x22 +1 x23 +1 x24 +1 x25 +1 x26 +1 x27 +1 x28 +1 x29 >= +1
 c2: +1 x30 +1 x31 +1 x32 +1 x33 +1 x34 +1 x35 +1 x36 +1 x37 +1 x38 +1 x39 >= +1
 c3: +1 x40 +1 x41 +1 x42 +1 x43 +1 x44 +1 x45 +1 x46 +1 x47 +1 x48 +1 x49 >= +1
 c4: +1 x50 +1 x51 +1 x52 +1 x53 +1 x54 +1 x55 +1 x56 +1 x57 +1 x58 +1 x59 >= +1
 c5: +1 x60 +1 x61 +1 x62 +1 x63 +1 x64 +1 x65 +1 x66 +1 x67 +1 x68 +1 x69 >= +1
 c6: +1 x70 +1 x71 +1 x72 +1 x73 +1 x74 +1 x75 +1 x76 +1 x77 +1 x78 +1 x79 >= +1
 c7: +1 x80 +1 x81 +1 x82 +1 x83 +1 x84 +1 x85 +1 x86 +1 x87 +1 x88 +1 x89 >= +1
 c8: +1 x90 +1 x91 +1 x92 +1 x93 +1 x94 +1 x95 +1 x96 +1 x97 +1 x98 +1 x99 >= +1
 c9: +1 x100 +1 x101 +1 x102 +1 x103 +1 x104 +1 x105 +1 x106 +1 x107 +1 x108 +1 x109 >= +1
 c10: +1 x110 +1 x111 +1 x112 +1 x113 +1 x114 +1 x115 +1 x116 +1 x117 +1 x118 +1 x119 >= +1
 c11: +1 x120 +1 x121 +1 x122 +1 x123 +1 x124 +1 x125 +1 x126 +1 x127 +1 x128 +1 x129 >= +1
 c12: +1 x130 +1 x131 +1 x132 +1 x133 +1 x134 +1 x135 +1 x136 +1 x137 +1 x138 +1 x139 >= +1
 c13: +1 x140 +1 x141 +1 x142 +1 x143 +1 x144 +1 x145 +1 x146 +1 x147 +1 x148 +1 x149 >= +1
 c14: +1 x150 +1 x151 +1 x152 +1 x153 +1 x154 +1 x155 +1 x156 +1 x157 +1 x158 +1 x159 >= +1
 c15: +1 x160 +1 x161 +1 x162 +1 x163 +1 x164 +1 x165 +1 x166 +1 x167 +1 x168 +1 x169 >= +1
 c16: +1 x170 +1 x171 +1 x172 +1 x173 +1 x174 +1 x175 +1 x176 +1 x177 +1 x178 +1 x179 >= +1
 c17: +1 x180 +1 x181 +1 x182 +1 x183 +1 x184 +1 x185 +1 x186 +1 x187 +1 x188 +1 x189 >= +1
 c18: +1 x190 +1 x191 +1 x192 +1 x193 +1 x194 +1 x195 +1 x196 +1 x197 +1 x198 +1 x199 >= +1
 c19: +1 x200 +1 x201 +1 x202 +1 x203 +1 x204 +1 x205 +1 x206 +1 x207 +1 x208 +1 x209 >= +1
 c20: +7 x10 +18 x20 +7 x30 +12 x40 +23 x50 +5 x60 +17 x70 +35 x80 +24 x90 +13 x100 +21 x110 +10 x120
  +35 x130 +29 x140 +5 x150 +5 x160 +10 x170 +16 x180 +16 x190 +21 x200 -298 x0 <= +0
 c21: +7 x11 +18 x21 +7 x31 +12 x41 +23 x51 +5 x61 +17 x71 +35 x81 +24 x91 +13 x101 +21 x111 +10 x121
  +35 x131 +29 x141 +5 x151 +5 x161 +10 x171 +16 x181 +16 x191 +21 x201 -307 x1 <= +0
 c22: +7 x12 +18 x22 +7 x32 +12 x42 +23 x52 +5 x62 +17 x72 +35 x82 +24 x92 +13 x102 +21 x112 +10 x122
  +35 x132 +29 x142 +5 x152 +5 x162 +10 x172 +16 x182 +16 x192 +21 x202 -79 x2 <= +0
 c23: +7 x13 +18 x23 +7 x33 +12 x43 +23 x53 +5 x63 +17 x73 +35 x83 +24 x93 +13 x103 +21 x113 +10 x123
  +35 x133 +29 x143 +5 x153 +5 x163 +10 x173 +16 x183 +16 x193 +21 x203 -84 x3 <= +0
 c24: +7 x14 +18 x24 +7 x34 +12 x44 +23 x54 +5 x64 +17 x74 +35 x84 +24 x94 +13 x104 +21 x114 +10 x124
  +35 x134 +29 x144 +5 x154 +5 x164 +10 x174 +16 x184 +16 x194 +21 x204 -134 x4 <= +0
 c25: +7 x15 +18 x25 +7 x35 +12 x45 +23 x55 +5 x65 +17 x75 +35 x85 +24 x95 +13 x105 +21 x115 +10 x125
  +35 x135 +29 x145 +5 x155 +5 x165 +10 x175 +16 x185 +16 x195 +21 x205 -225 x5 <= +0
 c26: +7 x16 +18 x26 +7 x36 +12 x46 +23 x56 +5 x66 +17 x76 +35 x86 +24 x96 +13 x106 +21 x116 +10 x126
  +35 x136 +29 x146 +5 x156 +5 x166 +10 x176 +16 x186 +16 x196 +21 x206 -98 x6 <= +0
 c27: +7 x17 +18 x27 +7 x37 +12 x47 +23 x57 +5 x67 +17 x77 +35 x87 +24 x97 +13 x107 +21 x117 +10 x127
  +35 x137 +29 x147 +5 x157 +5 x167 +10 x177 +16 x187 +16 x197 +21 x207 -271 x7 <= +0
 c28: +7 x18 +18 x28 +7 x38 +12 x48 +23 x58 +5 x68 +17 x78 +35 x88 +24 x98 +13 x108 +21 x118 +10 x128
  +35 x138 +29 x148 +5 x158 +5 x168 +10 x178 +16 x188 +16 x198 +21 x208 -63 x8 <= +0
 c29: +7 x19 +18 x29 +7 x39 +12 x49 +23 x59 +5 x69 +17 x79 +35 x89 +24 x99 +13 x109 +21 x119 +10 x129
  +35 x139 +29 x149 +5 x159 +5 x169 +10 x179 +16 x189 +16 x199 +21 x209 -86 x9 <= +0
 c30: +298 x0 +307 x1 +79 x2 +84 x3 +134 x4 +225 x5 +98 x6 +271 x7 +63 x8 +86 x9 >= +329
 c31: +1 x10 -1 x0 <= +0
 c32: +1 x11 -1 x1 <= +0
 c33: +1 x12 -1 x2 <= +0
 c34: +1 x13 -1 x3 <= +0
 c35: +1 x14 -1 x4 <= +0
 c36: +1 x15 -1 x5 <= +0
 c37: +1 x16 -1 x6 <= +0
 c38: +1 x17 -1 x7 <= +0
 c39: +1 x18 -1 x8 <= +0
 c40: +1 x19 -1 x9 <= +0
 c41: +1 x20 -1 x0 <= +0
 c42: +1 x21 -1 x1 <= +0
 c43: +1 x22 -1 x2 <= +0
 c44: +1 x23 -1 x3 <= +0
 c45: +1 x24 -1 x4 <= +0
 c46: +1 x25 -1 x5 <= +0
 c47: +1 x26 -1 x6 <= +0
 c48: +1 x27 -1 x7 <= +0
 c49: +1 x28 -1 x8 <= +0
 c50: +1 x29 -1 x9 <= +0
 c51: +1 x30 -1 x0 <= +0
 c52: +1 x31 -1 x1 <= +0
 c53: +1 x32 -1 x2 <= +0
 c54: +1 x33 -1 x3 <= +0
 c55: +1 x34 -1 x4 <= +0
 c56: +1 x35 -1 x5 <= +0
 c57: +1 x36 -1 x6 <= +0
 c58: +1 x37 -1 x7 <= +0
 c59: +1 x38 -1 x8 <= +0
 c60: +1 x39 -1 x9 <= +0
 c61: +1 x40 -1 x0 <= +0
 c62: +1 x41 -1 x1 <= +0
 c63: +1 x42 -1 x2 <= +0
 c64: +1 x43 -1 x3 <= +0
 c65: +1 x44 -1 x4 <= +0
 c66: +1 x45 -1 x5 <= +0
 c67: +1 x46 -1 x6 <= +0
 c68: +1 x47 -1 x7 <= +0
 c69: +1 x48 -1 x8 <= +0
 c70: +1 x49 -1 x9 <= +0
 c71: +1 x50 -1 x0 <= +0
 c72: +1 x51 -1 x1 <= +0
 c73: +1 x52 -1 x2 <= +0
 c74: +1 x53 -1 x3 <= +0
 c75: +1 x54 -1 x4 <= +0
 c76: +1 x55 -1 x5 <= +0
 c77: +1 x56 -1 x6 <= +0
 c78: +1 x57 -1 x7 <= +0
 c79: +1 x58 -1 x8 <= +0
 c80: +1 x59 -1 x9 <= +0
 c81: +1 x60 -1 x0 <= +0
 c82: +1 x61 -1 x1 <= +0
 c83: +1 x62 -1 x2 <= +0
 c84: +1 x63 -1 x3 <= +0
 c85: +1 x64 -1 x4 <= +0
 c86: +1 x65 -1 x5 <= +0
 c87: +1 x66 -1 x6 <= +0
 c88: +1 x67 -1 x7 <= +0
 c89: +1 x68 -1 x8 <= +0
 c90: +1 x69 -1 x9 <= +0
 c91: +1 x70 -1 x0 <= +0
 c92: +1 x71 -1 x1 <= +0
 c93: +1 x72 -1 x2 <= +0
 c94: +1 x73 -1 x3 <= +0
 c95: +1 x74 -1 x4 <= +0
 c96: +1 x75 -1 x5 <= +0
 c97: +1 x76 -1 x6 <= +0
 c98: +1 x77 -1 x7 <= +0
 c99: +1 x78 -1 x8 <= +0
 c100: +1 x79 -1 x9 <= +0
 c101: +1 x80 -1 x0 <= +0
 c102: +1 x81 -1 x1 <= +0
 c103: +1 x82 -1 x2 <= +0
 c104: +1 x83 -1 x3 <= +0
 c105: +1 x84 -1 x4 <= +0
 c106: +1 x85 -1 x5 <= +0
 c107: +1 x86 -1 x6 <= +0
 c108: +1 x87 -1 x7 <= +0
 c109: +1 x88 -1 x8 <= +0
 c110: +1 x89 -1 x9 <= +0
 c111: +1 x90 -1 x0 <= +0
 c112: +1 x91 -1 x1 <= +0
 c113: +1 x92 -1 x2 <= +0
 c114: +1 x93 -1 x3 <= +0
 c115: +1 x94 -1 x4 <= +0
 c116: +1 x95 -1 x5 <= +0
 c117: +1 x96 -1 x6 <= +0
 c118: +1 x97 -1 x7 <= +0
 c119: +1 x98 -1 x8 <= +0
 c120: +1 x99 -1 x9 <= +0
 c121: +1 x100 -1 x0 <= +0
 c122: +1 x101 -1 x1 <= +0
 c123: +1 x102 -1 x2 <= +0
 c124: +1 x103 -1 x3 <= +0
 c125: +1 x104 -1 x4 <= +0
 c126: +1 x105 -1 x5 <= +0
 c127: +1 x106 -1 x6 <= +0
 c128: +1 x107 -1 x7 <= +0
 c129: +1 x108 -1 x8 <= +0
 c130: +1 x109 -1 x9 <= +0
 c131: +1 x110 -1 x0 <= +0
 c132: +1 x111 -1 x1 <= +0
 c133: +1 x112 -1 x2 <= +0
 c134: +1 x113 -1 x3 <= +0
 c135: +1 x114 -1 x4 <= +0
 c136: +1 x115 -1 x5 <= +0
 c137: +1 x116 -1 x6 <= +0
 c138: +1 x117 -1 x7 <= +0
 c139: +1 x118 -1 x8 <= +0
 c140: +1 x119 -1 x9 <= +0
 c141: +1 x120 -1 x0 <= +0
 c142: +1 x121 -1 x1 <= +0
 c143: +1 x122 -1 x2 <= +0
 c144: +1 x123 -1 x3 <= +0
 c145: +1 x124 -1 x4 <= +0
 c146: +1 x125 -1 x5 <= +0
 c147: +1 x126 -1 x6 <= +0
 c148: +1 x127 -1 x7 <= +0
 c149: +1 x128 -1 x8 <= +0
 c150: +1 x129 -1 x9 <= +0
 c151: +1 x130 -1 x0 <= +0
 c152: +1 x131 -1 x1 <= +0
 c153: +1 x132 -1 x2 <= +0
 c154: +1 x133 -1 x3 <= +0
 c155: +1 x134 -1 x4 <= +0
 c156: +1 x135 -1 x5 <= +0
 c157: +1 x136 -1 x6 <= +0
 c158: +1 x137 -1 x7 <= +0
 c159: +1 x138 -1 x8 <= +0
 c160: +1 x139 -1 x9 <= +0
 c161: +1 x140 -1 x0 <= +0
 c162: +1 x141 -1 x1 <= +0
 c163: +1 x142 -1 x2 <= +0
 c164: +1 x143 -1 x3 <= +0
 c165: +1 x144 -1 x4 <= +0
 c166: +1 x145 -1 x5 <= +0
 c167: +1 x146 -1 x6 <= +0
 c168: +1 x147 -1 x7 <= +0
 c169: +1 x148 -1 x8 <= +0
 c170: +1 x149 -1 x9 <= +0
 c171: +1 x150 -1 x0 <= +0
 c172: +1 x151 -1 x1 <= +0
 c173: +1 x152 -1 x2 <= +0
 c174: +1 x153 -1 x3 <= +0
 c175: +1 x154 -1 x4 <= +0
 c176: +1 x155 -1 x5 <= +0
 c177: +1 x156 -1 x6 <= +0
 c178: +1 x157 -1 x7 <= +0
 c179: +1 x158 -1 x8 <= +0
 c180: +1 x159 -1 x9 <= +0
 c181: +1 x160 -1 x0 <= +0
 c182: +1 x161 -1 x1 <= +0
 c183: +1 x162 -1 x2 <= +0
 c184: +1 x163 -1 x3 <= +0
 c185: +1 x164 -1 x4 <= +0
 c186: +1 x165 -1 x5 <= +0
 c187: +1 x166 -1 x6 <= +0
 c188: +1 x167 -1 x7 <= +0
 c189: +1 x168 -1 x8 <= +0
 c190: +1 x169 -1 x9 <= +0
 c191: +1 x170 -1 x0 <= +0
 c192: +1 x171 -1 x1 <= +0
 c193: +1 x172 -1 x2 <= +0
 c194: +1 x173 -1 x3 <= +0
 c195: +1 x174 -1 x4 <= +0
 c196: +1 x175 -1 x5 <= +0
 c197: +1 x176 -1 x6 <= +0
 c198: +1 x177 -1 x7 <= +0
 c199: +1 x178 -1 x8 <= +0
 c200: +1 x179 -1 x9 <= +0
 c201: +1 x180 -1 x0 <= +0
 c202: +1 x181 -1 x1 <= +0
 c203: +1 x182 -1 x2 <= +0
 c204: +1 x183 -1 x3 <= +0
 c205: +1 x184 -1 x4 <= +0
 c206: +1 x185 -1 x5 <= +0
 c207: +1 x186 -1 x6 <= +0
 c208: +1 x187 -1 x7 <= +0
 c209: +1 x188 -1 x8 <= +0
 c210: +1 x189 -1 x9 <= +0
 c211: +1 x190 -1 x0 <= +0
 c212: +1 x191 -1 x1 <= +0
 c213: +1 x192 -1 x2 <= +0
 c214: +1 x193 -1 x3 <= +0
 c215: +1 x194 -1 x4 <= +0
 c216: +1 x195 -1 x5 <= +0
 c217: +1 x196 -1 x6 <= +0
 c218: +1 x197 -1 x7 <= +0
 c219: +1 x198 -1 x8 <= +0
 c220: +1 x199 -1 x9 <= +0
 c221: +1 x200 -1 x0 <= +0
 c222: +1 x201 -1 x1 <= +0
 c223: +1 x202 -1 x2 <= +0
 c224: +1 x203 -1 x3 <= +0
 c225: +1 x204 -1 x4 <= +0
 c226: +1 x205 -1 x5 <= +0
 c227: +1 x206 -1 x6 <= +0
 c228: +1 x207 -1 x7 <= +0
 c229: +1 x208 -1 x8 <= +0
 c230: +1 x209 -1 x9 <= +0
Bounds
 0 <= x0 <= 1
 0 <= x1 <= 1
 0 <= x2 <= 1
 0 <= x3 <= 1
 0 <= x4 <= 1
 0 <= x5 <= 1
 0 <= x6 <= 1
 0 <= x7 <= 1
 0 <= x8 <= 1
 0 <= x9 <= 1
 0 <= x10 <= 1
 0 <= x11 <= 1
 0 <= x12 <= 1
 0 <= x13 <= 1
 0 <= x14 <= 1
 0 <= x15 <= 1
 0 <= x16 <= 1
 0 <= x17 <= 1
 0 <= x18 <= 1
 0 <= x19 <= 1
 0 <= x20 <= 1
 0 <= x21 <= 1
 0 <= x22 <= 1
 0 <= x23 <= 1
 0 <= x24 <= 1
 0 <= x25 <= 1
 0 <= x26 <= 1
 0 <= x27 <= 1
 0 <= x28 <= 1
 0 <= x29 <= 1
 0 <= x30 <= 1
 0 <= x31 <= 1
 0 <= x32 <= 1
 0 <= x33 <= 1
 0 <= x34 <= 1
 0 <= x35 <= 1
 0 <= x36 <= 1
 0 <= x37 <= 1
 0 <= x38 <= 1
 0 <= x39 <= 1
 0 <= x40 <= 1
 0 <= x41 <= 1
 0 <= x42 <= 1
 0 <= x43 <= 1
 0 <= x44 <= 1
 0 <= x45 <= 1
 0 <= x46 <= 1
 0 <= x47 <= 1
 0 <= x48 <= 1
 0 <= x49 <= 1
 0 <= x50 <= 1
 0 <= x51 <= 1
 0 <= x52 <= 1
 0 <= x53 <= 1
 0 <= x54 <= 1
 0 <= x55 <= 1
 0 <= x56 <= 1
 0 <= x57 <= 1
 0 <= x58 <= 1
 0 <= x59 <= 1
 0 <= x60 <= 1
 0 <= x61 <= 1
 0 <= x62 <= 1
 0 <= x63 <= 1
 0 <= x64 <= 1
 0 <= x65 <= 1
 0 <= x66 <= 1
 0 <= x67 <= 1
 0 <= x68 <= 1
 0 <= x69 <= 1
 0 <= x70 <= 1
 0 <= x71 <= 1
 0 <= x72 <= 1
 0 <= x73 <= 1
 0 <= x74 <= 1
 0 <= x75 <= 1
 0 <= x76 <= 1
 0 <= x77 <= 1
 0 <= x78 <= 1
 0 <= x79 <= 1
 0 <= x80 <= 1
 0 <= x81 <= 1
 0 <= x82 <= 1
 0 <= x83 <= 1
 0 <= x84 <= 1
 0 <= x85 <= 1
 0 <= x86 <= 1
 0 <= x87 <= 1
 0 <= x88 <= 1
 0 <= x89 <= 1
 0 <= x90 <= 1
 0 <= x91 <= 1
 0 <= x92 <= 1
 0 <= x93 <= 1
 0 <= x94 <= 1
 0 <= x95 <= 1
 0 <= x96 <= 1
 0 <= x97 <= 1
 0 <= x98 <= 1
 0 <= x99 <= 1
 0 <= x100 <= 1
 0 <= x101 <= 1
 0 <= x102 <= 1
 0 <= x103 <= 1
 0 <= x104 <= 1
 0 <= x105 <= 1
 0 <= x106 <= 1
 0 <= x107 <= 1
 0 <= x108 <= 1
 0 <= x109 <= 1
 0 <= x110 <= 1
 0 <= x111 <= 1
 0 <= x112 <= 1
 0 <= x113 <= 1
 0 <= x114 <= 1
 0 <= x115 <= 1
 0 <= x116 <= 1
 0 <= x117 <= 1
 0 <= x118 <= 1
 0 <= x119 <= 1
 0 <= x120 <= 1
 0 <= x121 <= 1
 0 <= x122 <= 1
 0 <= x123 <= 1
 0 <= x124 <= 1
 0 <= x125 <= 1
 0 <= x126 <= 1
 0 <= x127 <= 1
 0 <= x128 <= 1
 0 <= x129 <= 1
 0 <= x130 <= 1
 0 <= x131 <= 1
 0 <= x132 <= 1
 0 <= x133 <= 1
 0 <= x134 <= 1
 0 <= x135 <= 1
 0 <= x136 <= 1
 0 <= x137 <= 1
 0 <= x138 <= 1
 0 <= x139 <= 1
 0 <= x140 <= 1
 0 <= x141 <= 1
 0 <= x142 <= 1
 0 <= x143 <= 1
 0 <= x144 <= 1
 0 <= x145 <= 1
 0 <= x146 <= 1
 0 <= x147 <= 1
 0 <= x148 <= 1
 0 <= x149 <= 1
 0 <= x150 <= 1
 0 <= x151 <= 1
 0 <= x152 <= 1
 0 <= x153 <= 1
 0 <= x154 <= 1
 0 <= x155 <= 1
 0 <= x156 <= 1
 0 <= x157 <= 1
 0 <= x158 <= 1
 0 <= x159 <= 1
 0 <= x160 <= 1
 0 <= x161 <= 1
 0 <= x162 <= 1
 0 <= x163 <= 1
 0 <= x164 <= 1
 0 <= x165 <= 1
 0 <= x166 <= 1
 0 <= x167 <= 1
 0 <= x168 <= 1
 0 <= x169 <= 1
 0 <= x170 <= 1
 0 <= x171 <= 1
 0 <= x172 <= 1
 0 <= x173 <= 1
 0 <= x174 <= 1
 0 <= x175 <= 1
 0 <= x176 <= 1
 0 <= x177 <= 1
 0 <= x178 <= 1
 0 <= x179 <= 1
 0 <= x180 <= 1
 0 <= x181 <= 1
 0 <= x182 <= 1
 0 <= x183 <= 1
 0 <= x184 <= 1
 0 <= x185 <= 1
 0 <= x186 <= 1
 0 <= x187 <= 1
 0 <= x188 <= 1
 0 <= x189 <= 1
 0 <= x190 <= 1
 0 <= x191 <= 1
 0 <= x192 <= 1
 0 <= x193 <= 1
 0 <= x194 <= 1
 0 <= x195 <= 1
 0 <= x196 <= 1
 0 <= x197 <= 1
 0 <= x198 <= 1
 0 <= x199 <= 1
 0 <= x200 <= 1
 0 <= x201 <= 1
 0 <= x202 <= 1
 0 <= x203 <= 1
 0 <= x204 <= 1
 0 <= x205 <= 1
 0 <= x206 <= 1
 0 <= x207 <= 1
 0 <= x208 <= 1
 0 <= x209 <= 1
Binaries
 x0 x1 x2 x3 x4 x5 x6 x7 x8 x9 x10 x11 x12 x13 x14 x15 x16 x17 x18 x19 x20 x21 x22 x23 x24 x25 x26 x27
 x28 x29 x30 x31 x32 x33 x34 x35 x36 x37 x38 x39 x40 x41 x42 x43 x44 x45 x46 x47 x48 x49 x50 x51 x52 x53
 x54 x55 x56 x57 x58 x59 x60 x61 x62 x63 x64 x65 x66 x67 x68 x69 x70 x71 x72 x73 x74 x75 x76 x77 x78 x79
 x80 x81 x82 x83 x84 x85 x86 x87 x88 x89 x90 x91 x92 x93 x94 x95 x96 x97 x98 x99 x100 x101 x102 x103 x104
 x105 x106 x107 x108 x109 x110 x111 x112 x113 x114 x115 x116 x117 x118 x119 x120 x121 x122 x123 x124 x125
 x126 x127 x128 x129 x130 x131 x132 x133 x134 x135 x136 x137 x138 x139 x140 x141 x142 x143 x144 x145 x146
 x147 x148 x149 x150 x151 x152 x153 x154 x155 x156 x157 x158 x159 x160 x161 x162 x163 x164 x165 x166 x167
 x168 x169 x170 x171 x172 x173 x174 x175 x176 x177 x178 x179 x180 x181 x182 x183 x184 x185 x186 x187 x188
 x189 x190 x191 x192 x193 x194 x195 x196 x197 x198 x199 x200 x201 x202 x203 x204 x205 x206 x207 x208 x209
End
